
<<< setup


<<< generate

Version identifier: 22.1.1.0 | 2022-11-27 | 9160aff4d
Tried aggregator 1 time.
MIQCP Presolve eliminated 929 rows and 1 columns.
MIQCP Presolve modified 1528 coefficients.
Reduced MIQCP has 7103 rows, 6564 columns, and 77513 nonzeros.
Reduced MIQCP has 280 binaries, 0 generals, 0 SOSs, and 0 indicators.
Reduced MIQCP has 1097 quadratic constraints.
Presolve time = 0,30 sec. (294,87 ticks)
Probing fixed 0 vars, tightened 4525 bounds.
Probing time = 0,16 sec. (183,31 ticks)
Clique table members: 1337.
MIP emphasis: balance optimality and feasibility.
MIP search method: dynamic search.
Parallel mode: deterministic, using up to 12 threads.
Root relaxation solution time = 0,03 sec. (68,28 ticks)

        Nodes                                         Cuts/
   Node  Left     Objective  IInf  Best Integer    Best Bound    ItCnt     Gap

      0     0     4857,6831     0                  22525,4352      308         
      0     0     4845,1136   108                     Cone: 1      539         
      0     0     4834,3348   145                     Cone: 2      786         
      0     0     4830,6367   135                     Cone: 3      963         
      0     0     4827,7844   156                     Cone: 4     1177         
      0     0     4825,9283   153                     Cone: 5     1386         
      0     0     4824,4766   158                     Cone: 6     1575         
